
************************************************************
 TOWR - Trajectory Optimization for Walking Robots (v1.4)
                © Alexander W. Winkler
           https://github.com/ethz-adrl/towr
************************************************************

0.5022222222222222
1.5157803197624987e-116
0.24
0
0
0.24
0
0
0
0.21
0.19
0.0
0.21
-0.19
0.0
-0.21
0.19
0.0
-0.21
-0.19
0.0
0.01
ee start pos x -> 0.21
ee start pos y -> 0.19
ee start pos z -> 0
ee start pos x -> 0.21
ee start pos y -> -0.19
ee start pos z -> 0
ee start pos x -> -0.21
ee start pos y -> 0.19
ee start pos z -> 0
ee start pos x -> -0.21
ee start pos y -> -0.19
ee start pos z -> 0
start pos x -> 0
start pos y -> 0
start pos z -> 0.24
goal pos x -> 0.502222
goal pos y -> 1.51578e-116
goal pos z -> 0.24
ee start pos x -> 0.21
ee start pos y -> 0.19
ee start pos z -> 0
ee start pos x -> 0.21
ee start pos y -> -0.19
ee start pos z -> 0
ee start pos x -> -0.21
ee start pos y -> 0.19
ee start pos z -> 0
ee start pos x -> -0.21
ee start pos y -> -0.19
ee start pos z -> 0
SOLVER RUN TIME : 15

******************************************************************************
This program contains Ipopt, a library for large-scale nonlinear optimization.
 Ipopt is released as open source code under the Eclipse Public License (EPL).
         For more information visit http://projects.coin-or.org/Ipopt
******************************************************************************

This is Ipopt version 3.11.9, running with linear solver mumps.
NOTE: Other linear solvers might be more efficient (see Ipopt documentation).

Number of nonzeros in equality constraint Jacobian...:    11557
Number of nonzeros in inequality constraint Jacobian.:    20605
Number of nonzeros in Lagrangian Hessian.............:        0

Total number of variables............................:     1005
                     variables with only lower bounds:        0
                variables with lower and upper bounds:        0
                     variables with only upper bounds:        0
Total number of equality constraints.................:      706
Total number of inequality constraints...............:     1024
        inequality constraints with only lower bounds:      112
   inequality constraints with lower and upper bounds:      816
        inequality constraints with only upper bounds:       96

iter    objective    inf_pr   inf_du lg(mu)  ||d||  lg(rg) alpha_du alpha_pr  ls
   0  0.0000000e+00 1.94e+01 1.00e+00   0.0 0.00e+00    -  0.00e+00 0.00e+00   0
   1  0.0000000e+00 1.72e+01 2.38e+01  -0.3 8.26e+00    -  4.04e-01 1.17e-01f  1
   2  0.0000000e+00 1.22e+01 1.22e+02   0.4 1.04e+01    -  9.93e-01 2.92e-01f  1
   3  0.0000000e+00 3.72e+00 2.90e+02   0.4 8.88e+00    -  7.51e-01 6.94e-01f  1
   4  0.0000000e+00 2.93e-02 8.08e+01  -0.0 2.69e+00    -  9.94e-01 1.00e+00h  1
   5  0.0000000e+00 1.40e-04 1.75e+00  -1.0 1.03e-01    -  9.94e-01 1.00e+00h  1
   6  0.0000000e+00 1.81e-07 8.68e-02  -7.0 8.37e-04    -  9.90e-01 1.00e+00h  1
   7  0.0000000e+00 4.32e-05 2.17e-04  -4.4 6.51e-02    -  9.97e-01 1.00e+00h  1

Number of Iterations....: 7

                                   (scaled)                 (unscaled)
Objective...............:   0.0000000000000000e+00    0.0000000000000000e+00
Dual infeasibility......:   2.1708921272532451e-04    2.1708921272532451e-04
Constraint violation....:   4.3162376600430763e-05    4.3162376600430763e-05
Complementarity.........:   5.3796701320983300e-05    5.3796701320983300e-05
Overall NLP error.......:   2.1708921272532451e-04    2.1708921272532451e-04


Number of objective function evaluations             = 8
Number of objective gradient evaluations             = 8
Number of equality constraint evaluations            = 8
Number of inequality constraint evaluations          = 8
Number of equality constraint Jacobian evaluations   = 8
Number of inequality constraint Jacobian evaluations = 8
Number of Lagrangian Hessian evaluations             = 0
Total CPU secs in IPOPT (w/o function evaluations)   =      0.288
Total CPU secs in NLP function evaluations           =      0.487

EXIT: Optimal Solution Found.
status -> 0

************************************************************
    IFOPT - Interface to Nonlinear Optimizers (v2.0)
                © Alexander W. Winkler
           https://github.com/ethz-adrl/ifopt
************************************************************
Legend:
c - number of variables, constraints or cost terms
i - indices of this set in overall problem
v - number of [violated variable- or constraint-bounds] or [cost term value]

                                   c             i             v 
variable-sets:
   base-lin                       306        0....305[0m           0[0m
   base-ang                       306      306....611[0m           0[0m
   ee-motion_0                     35      612....646[0m           0[0m
   ee-motion_1                     35      647....681[0m           0[0m
   ee-motion_2                     35      682....716[0m           0[0m
   ee-motion_3                     35      717....751[0m           0[0m
   ee-force_0                      72      752....823[0m           0[0m
   ee-force_1                      72      824....895[0m           0[0m
   ee-force_2                      72      896....967[0m           0[0m
   ee-force_3                      72      968...1039[0m           0[0m

constraint-sets:
   terrain-ee-motion_0             13        0.....12[0m           0[0m
   terrain-ee-motion_1             13       13.....25[0m           0[0m
   terrain-ee-motion_2             13       26.....38[0m           0[0m
   terrain-ee-motion_3             13       39.....51[0m           0[0m
   dynamic                        312       52....363[0m           0[0m
   splineacc-base-lin             147      364....510[0m           0[0m
   splineacc-base-ang             147      511....657[0m           0[0m
   rangeofmotion-0                192      658....849[0m           0[0m
   rangeofmotion-1                192      850...1041[0m           0[0m
   rangeofmotion-2                192     1042...1233[0m           0[0m
   rangeofmotion-3                192     1234...1425[0m           0[0m
   force-ee-force_0                60     1426...1485[0m           0[0m
   force-ee-force_1                60     1486...1545[0m           0[0m
   force-ee-force_2                60     1546...1605[0m           0[0m
   force-ee-force_3                60     1606...1665[0m           0[0m
   swing-ee-motion_0               16     1666...1681[0m           0[0m
   swing-ee-motion_1               16     1682...1697[0m           0[0m
   swing-ee-motion_2               16     1698...1713[0m           0[0m
   swing-ee-motion_3               16     1714...1729[0m           0[0m

cost-terms:


************************************************************
 TOWR - Trajectory Optimization for Walking Robots (v1.4)
                © Alexander W. Winkler
           https://github.com/ethz-adrl/towr
************************************************************

0.878888888888889
0.0
0.24
0.32756
-0.0121864
0.220703
-0.0390706
-0.0417247
0.0135739
0.530629
0.144364
0
0.587258
-0.173956
0
0.109141
0.174154
0
0.144326
-0.176869
0
3.756
s_vel
0.133098
0.01
-t
3.756
ee start pos x -> 0.530629
ee start pos y -> 0.144364
ee start pos z -> 0
ee start pos x -> 0.587258
ee start pos y -> -0.173956
ee start pos z -> 0
ee start pos x -> 0.109141
ee start pos y -> 0.174154
ee start pos z -> 0
ee start pos x -> 0.144326
ee start pos y -> -0.176869
ee start pos z -> 0
start pos x -> 0.32756
start pos y -> -0.0121864
start pos z -> 0.220703
goal pos x -> 0.878889
goal pos y -> 0
goal pos z -> 0.24
ee start pos x -> 0.530629
ee start pos y -> 0.144364
ee start pos z -> 0
ee start pos x -> 0.587258
ee start pos y -> -0.173956
ee start pos z -> 0
ee start pos x -> 0.109141
ee start pos y -> 0.174154
ee start pos z -> 0
ee start pos x -> 0.144326
ee start pos y -> -0.176869
ee start pos z -> 0
SOLVER RUN TIME : 15

******************************************************************************
This program contains Ipopt, a library for large-scale nonlinear optimization.
 Ipopt is released as open source code under the Eclipse Public License (EPL).
         For more information visit http://projects.coin-or.org/Ipopt
******************************************************************************

This is Ipopt version 3.11.9, running with linear solver mumps.
NOTE: Other linear solvers might be more efficient (see Ipopt documentation).

Number of nonzeros in equality constraint Jacobian...:    11557
Number of nonzeros in inequality constraint Jacobian.:    20605
Number of nonzeros in Lagrangian Hessian.............:        0

Total number of variables............................:     1005
                     variables with only lower bounds:        0
                variables with lower and upper bounds:        0
                     variables with only upper bounds:        0
Total number of equality constraints.................:      706
Total number of inequality constraints...............:     1024
        inequality constraints with only lower bounds:      112
   inequality constraints with lower and upper bounds:      816
        inequality constraints with only upper bounds:       96

iter    objective    inf_pr   inf_du lg(mu)  ||d||  lg(rg) alpha_du alpha_pr  ls
   0  0.0000000e+00 1.94e+01 1.00e+00   0.0 0.00e+00    -  0.00e+00 0.00e+00   0
   1  0.0000000e+00 1.74e+01 3.41e+01  -0.3 8.32e+00    -  4.05e-01 1.05e-01f  1
   2  0.0000000e+00 1.28e+01 1.19e+02   0.4 1.05e+01    -  9.93e-01 2.61e-01f  1
   3  0.0000000e+00 4.16e+00 2.80e+02   0.4 9.28e+00    -  7.56e-01 6.76e-01h  1
   4  0.0000000e+00 2.81e-02 9.96e+01  -0.0 2.95e+00    -  1.00e+00 1.00e+00h  1
   5  0.0000000e+00 1.93e-04 2.99e+00  -0.9 1.22e-01    -  9.93e-01 1.00e+00h  1
   6  0.0000000e+00 2.00e-07 1.07e-01  -6.9 1.43e-03    -  9.90e-01 1.00e+00h  1
   7  0.0000000e+00 4.80e-05 2.23e-04  -4.4 7.70e-02    -  9.98e-01 1.00e+00h  1

Number of Iterations....: 7

                                   (scaled)                 (unscaled)
Objective...............:   0.0000000000000000e+00    0.0000000000000000e+00
Dual infeasibility......:   2.2299662916195359e-04    2.2299662916195359e-04
Constraint violation....:   4.8009426356944440e-05    4.8009426356944440e-05
Complementarity.........:   6.4648053923686840e-05    6.4648053923686840e-05
Overall NLP error.......:   2.2299662916195359e-04    2.2299662916195359e-04


Number of objective function evaluations             = 8
Number of objective gradient evaluations             = 8
Number of equality constraint evaluations            = 8
Number of inequality constraint evaluations          = 8
Number of equality constraint Jacobian evaluations   = 8
Number of inequality constraint Jacobian evaluations = 8
Number of Lagrangian Hessian evaluations             = 0
Total CPU secs in IPOPT (w/o function evaluations)   =      0.309
Total CPU secs in NLP function evaluations           =      0.456

EXIT: Optimal Solution Found.
status -> 0

************************************************************
    IFOPT - Interface to Nonlinear Optimizers (v2.0)
                © Alexander W. Winkler
           https://github.com/ethz-adrl/ifopt
************************************************************
Legend:
c - number of variables, constraints or cost terms
i - indices of this set in overall problem
v - number of [violated variable- or constraint-bounds] or [cost term value]

                                   c             i             v 
variable-sets:
   base-lin                       306        0....305[0m           0[0m
   base-ang                       306      306....611[0m           0[0m
   ee-motion_0                     35      612....646[0m           0[0m
   ee-motion_1                     35      647....681[0m           0[0m
   ee-motion_2                     35      682....716[0m           0[0m
   ee-motion_3                     35      717....751[0m           0[0m
   ee-force_0                      72      752....823[0m           0[0m
   ee-force_1                      72      824....895[0m           0[0m
   ee-force_2                      72      896....967[0m           0[0m
   ee-force_3                      72      968...1039[0m           0[0m

constraint-sets:
   terrain-ee-motion_0             13        0.....12[0m           0[0m
   terrain-ee-motion_1             13       13.....25[0m           0[0m
   terrain-ee-motion_2             13       26.....38[0m           0[0m
   terrain-ee-motion_3             13       39.....51[0m           0[0m
   dynamic                        312       52....363[0m           0[0m
   splineacc-base-lin             147      364....510[0m           0[0m
   splineacc-base-ang             147      511....657[0m           0[0m
   rangeofmotion-0                192      658....849[0m           0[0m
   rangeofmotion-1                192      850...1041[0m           0[0m
   rangeofmotion-2                192     1042...1233[0m           0[0m
   rangeofmotion-3                192     1234...1425[0m           0[0m
   force-ee-force_0                60     1426...1485[0m           0[0m
   force-ee-force_1                60     1486...1545[0m           0[0m
   force-ee-force_2                60     1546...1605[0m           0[0m
   force-ee-force_3                60     1606...1665[0m           0[0m
   swing-ee-motion_0               16     1666...1681[0m           0[0m
   swing-ee-motion_1               16     1682...1697[0m           0[0m
   swing-ee-motion_2               16     1698...1713[0m           0[0m
   swing-ee-motion_3               16     1714...1729[0m           0[0m

cost-terms:


************************************************************
 TOWR - Trajectory Optimization for Walking Robots (v1.4)
                © Alexander W. Winkler
           https://github.com/ethz-adrl/towr
************************************************************

1.1300000000000001
0.0
0.24
0.58413
0.0197131
0.243153
0.0463104
0.012134
0.0229944
0.781618
0.166239
0
0.822729
-0.176709
0
0.354516
0.175132
0
0.401465
-0.167034
0
6.281000000000001
s_vel
0.100029
0.01
-t
6.281000000000001
ee start pos x -> 0.781618
ee start pos y -> 0.166239
ee start pos z -> 0
ee start pos x -> 0.822729
ee start pos y -> -0.176709
ee start pos z -> 0
ee start pos x -> 0.354516
ee start pos y -> 0.175132
ee start pos z -> 0
ee start pos x -> 0.401465
ee start pos y -> -0.167034
ee start pos z -> 0
start pos x -> 0.58413
start pos y -> 0.0197131
start pos z -> 0.243153
goal pos x -> 1.13
goal pos y -> 0
goal pos z -> 0.24
ee start pos x -> 0.781618
ee start pos y -> 0.166239
ee start pos z -> 0
ee start pos x -> 0.822729
ee start pos y -> -0.176709
ee start pos z -> 0
ee start pos x -> 0.354516
ee start pos y -> 0.175132
ee start pos z -> 0
ee start pos x -> 0.401465
ee start pos y -> -0.167034
ee start pos z -> 0
SOLVER RUN TIME : 15

******************************************************************************
This program contains Ipopt, a library for large-scale nonlinear optimization.
 Ipopt is released as open source code under the Eclipse Public License (EPL).
         For more information visit http://projects.coin-or.org/Ipopt
******************************************************************************

This is Ipopt version 3.11.9, running with linear solver mumps.
NOTE: Other linear solvers might be more efficient (see Ipopt documentation).

Number of nonzeros in equality constraint Jacobian...:    11557
Number of nonzeros in inequality constraint Jacobian.:    20605
Number of nonzeros in Lagrangian Hessian.............:        0

Total number of variables............................:     1005
                     variables with only lower bounds:        0
                variables with lower and upper bounds:        0
                     variables with only upper bounds:        0
Total number of equality constraints.................:      706
Total number of inequality constraints...............:     1024
        inequality constraints with only lower bounds:      112
   inequality constraints with lower and upper bounds:      816
        inequality constraints with only upper bounds:       96

iter    objective    inf_pr   inf_du lg(mu)  ||d||  lg(rg) alpha_du alpha_pr  ls
   0  0.0000000e+00 1.94e+01 1.00e+00   0.0 0.00e+00    -  0.00e+00 0.00e+00   0
   1  0.0000000e+00 1.65e+01 1.53e+01  -0.5 8.19e+00    -  3.80e-01 1.50e-01f  1
   2  0.0000000e+00 1.46e+01 1.95e+02   0.4 1.31e+01    -  9.92e-01 1.14e-01f  1
   3  0.0000000e+00 4.88e+00 3.33e+02   0.5 1.04e+01    -  9.62e-01 6.66e-01h  1
   4  0.0000000e+00 5.79e-02 1.64e+02   0.4 3.93e+00    -  9.49e-01 1.00e+00f  1
   5  0.0000000e+00 2.73e-04 2.72e+00  -0.6 1.62e-01    -  9.94e-01 1.00e+00h  1
   6  0.0000000e+00 4.05e-07 1.42e-01  -6.6 2.64e-03    -  9.90e-01 1.00e+00h  1
   7  0.0000000e+00 1.00e-12 1.43e-03  -8.6 2.64e-04    -  9.90e-01 1.00e+00h  1
   8  0.0000000e+00 4.16e-13 2.03e-06 -10.6 2.22e-04    -  9.99e-01 1.00e+00h  1

Number of Iterations....: 8

                                   (scaled)                 (unscaled)
Objective...............:   0.0000000000000000e+00    0.0000000000000000e+00
Dual infeasibility......:   2.0332941396172275e-06    2.0332941396172275e-06
Constraint violation....:   4.1602832290266178e-13    4.1602832290266178e-13
Complementarity.........:   4.8352886453665076e-08    4.8352886453665076e-08
Overall NLP error.......:   2.0332941396172275e-06    2.0332941396172275e-06


Number of objective function evaluations             = 9
Number of objective gradient evaluations             = 9
Number of equality constraint evaluations            = 9
Number of inequality constraint evaluations          = 9
Number of equality constraint Jacobian evaluations   = 9
Number of inequality constraint Jacobian evaluations = 9
Number of Lagrangian Hessian evaluations             = 0
Total CPU secs in IPOPT (w/o function evaluations)   =      0.345
Total CPU secs in NLP function evaluations           =      0.514

EXIT: Optimal Solution Found.
status -> 0

************************************************************
    IFOPT - Interface to Nonlinear Optimizers (v2.0)
                © Alexander W. Winkler
           https://github.com/ethz-adrl/ifopt
************************************************************
Legend:
c - number of variables, constraints or cost terms
i - indices of this set in overall problem
v - number of [violated variable- or constraint-bounds] or [cost term value]

                                   c             i             v 
variable-sets:
   base-lin                       306        0....305[0m           0[0m
   base-ang                       306      306....611[0m           0[0m
   ee-motion_0                     35      612....646[0m           0[0m
   ee-motion_1                     35      647....681[0m           0[0m
   ee-motion_2                     35      682....716[0m           0[0m
   ee-motion_3                     35      717....751[0m           0[0m
   ee-force_0                      72      752....823[0m           0[0m
   ee-force_1                      72      824....895[0m           0[0m
   ee-force_2                      72      896....967[0m           0[0m
   ee-force_3                      72      968...1039[0m           0[0m

constraint-sets:
   terrain-ee-motion_0             13        0.....12[0m           0[0m
   terrain-ee-motion_1             13       13.....25[0m           0[0m
   terrain-ee-motion_2             13       26.....38[0m           0[0m
   terrain-ee-motion_3             13       39.....51[0m           0[0m
   dynamic                        312       52....363[0m           0[0m
   splineacc-base-lin             147      364....510[0m           0[0m
   splineacc-base-ang             147      511....657[0m           0[0m
   rangeofmotion-0                192      658....849[0m           0[0m
   rangeofmotion-1                192      850...1041[0m           0[0m
   rangeofmotion-2                192     1042...1233[0m           0[0m
   rangeofmotion-3                192     1234...1425[0m           0[0m
   force-ee-force_0                60     1426...1485[0m           0[0m
   force-ee-force_1                60     1486...1545[0m           0[0m
   force-ee-force_2                60     1546...1605[0m           0[0m
   force-ee-force_3                60     1606...1665[0m           0[0m
   swing-ee-motion_0               16     1666...1681[0m           0[0m
   swing-ee-motion_1               16     1682...1697[0m           0[0m
   swing-ee-motion_2               16     1698...1713[0m           0[0m
   swing-ee-motion_3               16     1714...1729[0m           0[0m

cost-terms:

